# 
# This is the geometry file that corresponds to the current relaxation step.
# If you do not want this file to be written, set the "write_restart_geometry" flag to .false.
#  aims_uuid : C32737CD-BA41-4EDD-A1E4-9489DAF4AB0A                                
# 
  set_vacuum_level        41.194468
lattice_vector     18.97336732      0.00000000      0.00000000
  constrain_relaxation y
  constrain_relaxation z
lattice_vector      0.00000000     21.90826436      0.00000000
  constrain_relaxation x
  constrain_relaxation z
lattice_vector      0.00000000      0.00000000     60.00000000
  constrain_relaxation .true.
atom       0.81811352      1.73405376     11.19446230 Mo
atom       3.98033723      1.73405079     11.19446369 Mo
atom       2.39922659      2.64688938     12.76311267 S
atom       2.39922405      2.64689256      9.62581365 S
atom       2.39922328      4.47259242     11.19446700 Mo
atom       0.81811017      5.38541660     12.76311935 S
atom       0.81811226      5.38543380      9.62582075 S
atom       7.14257104      1.73405167     11.19446233 Mo
atom       5.56145030      2.64688648     12.76311358 S
atom       5.56145014      2.64689264      9.62581739 S
atom       8.72368730      2.64689022     12.76311403 S
atom       8.72368449      2.64689620      9.62581346 S
atom       5.56145160      4.47259694     11.19447026 Mo
atom       3.98033793      5.38541761     12.76311975 S
atom       3.98034169      5.38542852      9.62582311 S
atom       8.72368067      4.47258892     11.19446808 Mo
atom       7.14256333      5.38542491     12.76312428 S
atom       7.14256164      5.38543666      9.62582199 S
atom       0.81810626      7.21112139     11.19447856 Mo
atom       3.98033421      7.21112171     11.19447998 Mo
atom       2.39922079      8.12396100     12.76313033 S
atom       2.39921861      8.12396501      9.62582696 S
atom       2.39922459      9.94965139     11.19448180 Mo
atom       0.81810598     10.86248929     12.76313066 S
atom       0.81810846     10.86249383      9.62583234 S
atom       7.14256400      7.21111577     11.19448073 Mo
atom       5.56144583      8.12395773     12.76313233 S
atom       5.56144718      8.12396381      9.62583042 S
atom       8.72367883      8.12395816     12.76313495 S
atom       8.72367505      8.12396352      9.62582733 S
atom       5.56144463      9.94965674     11.19448570 Mo
atom       3.98033550     10.86249281     12.76313252 S
atom       3.98033922     10.86249022      9.62583432 S
atom       8.72367903      9.94964307     11.19448268 Mo
atom       7.14256528     10.86249283     12.76313318 S
atom       7.14256328     10.86249139      9.62583564 S
atom      10.30479769      1.73404554     11.19445956 Mo
atom      13.46702760      1.73405303     11.19445530 Mo
atom      11.88591447      2.64688519     12.76310663 S
atom      11.88591135      2.64688990      9.62581222 S
atom      11.88590423      4.47258685     11.19446232 Mo
atom      10.30479319      5.38541848     12.76311840 S
atom      10.30478887      5.38542965      9.62581936 S
atom      16.62925400      1.73405102     11.19445977 Mo
atom      15.04813891      2.64688607     12.76310935 S
atom      15.04814317      2.64689086      9.62581116 S
atom      18.21036381      2.64688957     12.76311060 S
atom      18.21036508      2.64688700      9.62581457 S
atom      15.04813726      4.47258976     11.19446306 Mo
atom      13.46702583      5.38541676     12.76311625 S
atom      13.46702615      5.38542592      9.62581716 S
atom      18.21036873      4.47259108     11.19446247 Mo
atom      16.62925350      5.38541527     12.76311774 S
atom      16.62925024      5.38542728      9.62581861 S
atom      10.30479314      7.21110901     11.19447596 Mo
atom      13.46702218      7.21112054     11.19447070 Mo
atom      11.88591333      8.12395669     12.76312718 S
atom      11.88590934      8.12396315      9.62582536 S
atom      11.88590315      9.94964444     11.19447984 Mo
atom      10.30478903     10.86249477     12.76313054 S
atom      10.30478588     10.86249017      9.62583009 S
atom      16.62924801      7.21112162     11.19447523 Mo
atom      15.04813498      8.12395465     12.76312837 S
atom      15.04813865      8.12396072      9.62582260 S
atom      18.21035693      8.12395823     12.76312917 S
atom      18.21035876      8.12395677      9.62582443 S
atom      15.04813719      9.94964761     11.19447806 Mo
atom      13.46702270     10.86248982     12.76312566 S
atom      13.46702179     10.86248547      9.62583098 S
atom      18.21035950      9.94964549     11.19447748 Mo
atom      16.62925181     10.86248836     12.76313020 S
atom      16.62924856     10.86248699      9.62582908 S
atom       0.81810676     12.68818519     11.19448079 Mo
atom       3.98033762     12.68818165     11.19448066 Mo
atom       2.39922252     13.60102997     12.76312496 S
atom       2.39921991     13.60102047      9.62582730 S
atom       2.39922347     15.42671915     11.19447104 Mo
atom       0.81811603     16.33955305     12.76311847 S
atom       0.81811799     16.33955312      9.62582064 S
atom       7.14257034     12.68817975     11.19448291 Mo
atom       5.56144841     13.60102528     12.76312532 S
atom       5.56144998     13.60101663      9.62583131 S
atom       8.72368560     13.60102865     12.76312611 S
atom       8.72368031     13.60102096      9.62582824 S
atom       5.56145197     15.42672032     11.19447375 Mo
atom       3.98033665     16.33955656     12.76311937 S
atom       3.98033941     16.33955056      9.62582201 S
atom       8.72368066     15.42670764     11.19447187 Mo
atom       7.14256535     16.33955581     12.76311854 S
atom       7.14256390     16.33954928      9.62582447 S
atom       0.81811456     18.16525102     11.19446668 Mo
atom       3.98034343     18.16525944     11.19446768 Mo
atom       2.39922854     19.07808854     12.76311650 S
atom       2.39922570     19.07808152      9.62581236 S
atom       2.39923199     20.90378253     11.19445985 Mo
atom       0.81811617     21.81661873     12.76311014 S
atom       0.81811678     21.81662490      9.62581491 S
atom       7.14257240     18.16525069     11.19446733 Mo
atom       5.56145478     19.07808676     12.76311481 S
atom       5.56145463     19.07808220      9.62581655 S
atom       8.72368997     19.07808728     12.76311582 S
atom       8.72368679     19.07808276      9.62581326 S
atom       5.56145253     20.90378514     11.19446391 Mo
atom       3.98033706     21.81662047     12.76311118 S
atom       3.98034056     21.81662120      9.62581287 S
atom       8.72368687     20.90377147     11.19446099 Mo
atom       7.14257033     21.81662672     12.76310951 S
atom       7.14256830     21.81662650      9.62581642 S
atom      10.30479539     12.68817634     11.19447585 Mo
atom      13.46702562     12.68818157     11.19447278 Mo
atom      11.88591309     13.60102984     12.76312150 S
atom      11.88591074     13.60102148      9.62582416 S
atom      11.88590897     15.42671279     11.19446602 Mo
atom      10.30480046     16.33955433     12.76311623 S
atom      10.30479599     16.33954742      9.62581945 S
atom      16.62925140     12.68817895     11.19447565 Mo
atom      15.04813720     13.60102023     12.76312173 S
atom      15.04814020     13.60101329      9.62582398 S
atom      18.21036043     13.60102895     12.76312260 S
atom      18.21036299     13.60101449      9.62582535 S
atom      15.04814392     15.42671049     11.19446830 Mo
atom      13.46703049     16.33955248     12.76311319 S
atom      13.46703173     16.33954471      9.62581748 S
atom      18.21037061     15.42671615     11.19446737 Mo
atom      16.62925596     16.33955205     12.76311364 S
atom      16.62925283     16.33954604      9.62582059 S
atom      10.30480073     18.16524940     11.19446299 Mo
atom      13.46703015     18.16525588     11.19445920 Mo
atom      11.88591841     19.07808624     12.76311318 S
atom      11.88591552     19.07808107      9.62580896 S
atom      11.88590971     20.90377367     11.19445637 Mo
atom      10.30480219     21.81662261     12.76311107 S
atom      10.30479833     21.81662266      9.62580865 S
atom      16.62925377     18.16525092     11.19446216 Mo
atom      15.04813626     19.07808198     12.76311157 S
atom      15.04813958     19.07807829      9.62581085 S
atom      18.21036912     19.07808617     12.76311444 S
atom      18.21037174     19.07807602      9.62581277 S
atom      15.04814432     20.90377574     11.19445753 Mo
atom      13.46703010     21.81661593     12.76310260 S
atom      13.46703097     21.81661471      9.62581188 S
atom      18.21037051     20.90377838     11.19445772 Mo
atom      16.62926178     21.81661953     12.76311003 S
atom      16.62925959     21.81662098      9.62581210 S
# 
# What follows is the current estimated Hessian matrix constructed by the BFGS algorithm.
# This is NOT the true Hessian matrix of the system.
# If you do not want this information here, switch it off using the "hessian_to_restart_geometry" keyword.
# 
trust_radius             0.0001667061
hessian_block                1       1           8.284599           0.406578           0.067615           0.406578           9.016185           0.108977           0.067615           0.108977          11.839211
hessian_block                1       2          -0.142994          -0.185353          -0.034378           0.143567           0.396708           0.093662          -0.033070          -0.085192           0.290390
hessian_block                1       3          -1.472552          -0.862260          -1.421761          -0.921239          -0.726773          -0.868772          -1.433047          -0.843406          -1.571971
hessian_block                1       4          -1.433546          -0.747270           1.432759          -0.884819          -0.615319           0.806752           1.460989           0.901993          -1.565375
hessian_block                1       5          -0.178435          -0.339291           0.007183          -0.061617          -0.115125          -0.043032          -0.004249           0.005960          -0.023612
hessian_block                1       6           0.002943           0.012093           0.354797           0.095503           0.185260           0.171870          -0.002288          -0.023659           0.340533
hessian_block                1       7          -0.029493          -0.054905          -0.376769           0.003505          -0.069744          -0.133012          -0.004821          -0.046677           0.225123
hessian_block                1       8          -0.015434           0.067108           0.041627           0.319828           0.853103           0.214850           0.006153          -0.031283           0.272663
hessian_block                1       9           0.016216           0.019284          -0.042859          -0.017197          -0.059149           0.007712           0.016412           0.015522          -0.027483
hessian_block                1      10           0.010630           0.003556          -0.017907          -0.003188          -0.020585          -0.008606          -0.001466           0.030946          -0.032793
hessian_block                1      11           0.018161           0.080481          -0.033631          -0.040200          -0.045052          -0.037674          -0.014448          -0.048781          -0.048306
hessian_block                1      12           0.015043           0.074383          -0.034463          -0.034018          -0.027835          -0.062834           0.026413           0.104031          -0.021196
hessian_block                1      13           0.103875           0.343547           0.107553          -0.229304          -0.559314          -0.183276          -0.010069          -0.020582           0.022942
hessian_block                1      14          -0.007118          -0.056678          -0.055299           0.071760           0.159530           0.029160           0.017006           0.047862           0.005807
hessian_block                1      15          -0.005548          -0.043799           0.010478           0.057281           0.113211           0.054652          -0.018685          -0.097431          -0.010746
hessian_block                1      16          -0.136085          -0.441593          -0.240370          -0.154217          -0.491970          -0.020895           0.001014          -0.003774           0.023822
hessian_block                1      17           0.019593           0.068738           0.004432           0.034131           0.063552          -0.037193          -0.010314          -0.010239           0.025176
hessian_block                1      18           0.018749           0.071597           0.006456           0.025654           0.040331          -0.024690           0.002304          -0.014047          -0.009792
hessian_block                1      19           0.187404           0.366451           0.060397          -0.140828          -0.152620           0.030187           0.046965           0.131702           0.865845
hessian_block                1      20          -0.085680          -0.230330           0.016238          -0.191890          -0.318411          -0.049211          -0.019751           0.000362           0.013820
hessian_block                1      21          -0.039300          -0.076672           0.012214           0.030053           0.001641          -0.001964          -0.054476          -0.174277          -0.023320
hessian_block                1      22          -0.001431           0.037180          -0.032935           0.060877           0.097877           0.011165           0.080928           0.199487          -0.112731
hessian_block                1      23          -0.072320          -0.249148           0.000022           0.082719           0.172953           0.006452          -0.004770           0.002845           0.013818
hessian_block                1      24           0.040441           0.088304           0.368187          -0.023436          -0.032016           0.160636          -0.021164          -0.114633           0.330209
hessian_block                1      25           0.005973           0.015224          -0.363554          -0.112731          -0.274091          -0.152867           0.027112           0.088542           0.220242
hessian_block                1      26           0.001928           0.057851           0.016039          -0.146680          -0.179206           0.197147           0.009824           0.036695           0.010729
hessian_block                1      27           0.026847           0.067218          -0.047228           0.068630           0.137953          -0.000621          -0.059476          -0.174368           0.048222
hessian_block                1      28           0.017705           0.043142          -0.025842           0.076215           0.160514          -0.000798           0.065657           0.166193          -0.013334
hessian_block                1      29           0.014193           0.051233          -0.058483           0.024687           0.108347          -0.036390          -0.119057          -0.310243          -0.003506
hessian_block                1      30           0.012007           0.047836          -0.058398           0.027826           0.116497          -0.045772           0.096622           0.260120           0.017266
hessian_block                1      31           0.015860           0.127986           0.159780           0.072246          -0.003203          -0.069507          -0.003731           0.001007           0.020367
hessian_block                1      32          -0.037855          -0.080492          -0.071086          -0.044806          -0.117173           0.003382           0.027827           0.059808           0.079521
hessian_block                1      33          -0.036894          -0.068072          -0.002876          -0.055580          -0.151088           0.019991          -0.042574          -0.129256          -0.098971
hessian_block                1      34           0.033490           0.096381          -0.140747           0.199260           0.028880           0.048410           0.014126           0.018774           0.047433
hessian_block                1      35           0.012363           0.013148          -0.011159          -0.084508          -0.130650          -0.029118           0.016765           0.038249           0.033652
hessian_block                1      36           0.016291           0.026284          -0.010604          -0.087999          -0.138183          -0.022296          -0.018162          -0.040268          -0.026550
hessian_block                1      37          -0.024996          -0.168009           0.120269           0.151258           0.111109           0.103222          -0.031164          -0.105908           0.225797
hessian_block                1      38           0.139399           0.362355          -0.006142           0.130685           0.317824          -0.047493           0.005161          -0.034420           0.247106
hessian_block                1      39          -0.061932          -0.157805          -0.017591          -0.022559          -0.036857          -0.006859           0.061913           0.177493          -0.034043
hessian_block                1      40          -0.059513          -0.150174          -0.013340          -0.016147          -0.020301          -0.022285          -0.045950          -0.118396          -0.060560
hessian_block                1      41           0.212067           0.446649           0.067954          -0.058315          -0.076966          -0.012792           0.010431           0.012834          -0.004873
hessian_block                1      42          -0.001844           0.007725           0.046353           0.028057           0.079980          -0.019895           0.013349           0.094052          -0.005329
hessian_block                1      43          -0.000582           0.009872           0.047550           0.023201           0.065841          -0.000894          -0.019977          -0.113476          -0.003890
hessian_block                1      44          -0.294738          -0.584872          -0.103341           0.101679           0.278714           0.036384           0.002726          -0.068739           0.286233
hessian_block                1      45           0.050773           0.108916           0.007816          -0.045156          -0.160810           0.010225           0.023138           0.066681          -0.029421
hessian_block                1      46           0.052748           0.125361           0.073531          -0.029697          -0.113560          -0.016274          -0.002746           0.045765          -0.042079
hessian_block                1      47          -1.474057           0.860270           1.812276           0.768546          -0.700546          -0.970807           1.447604          -0.800065          -1.765687
hessian_block                1      48          -1.507026           0.786871          -1.820245           0.863004          -0.441114           1.007347          -1.469005           0.827991          -1.790315
hessian_block                1      49          -0.139258          -0.278022          -0.000667          -0.015620           0.099843          -0.001970           0.001761          -0.023806          -0.032289
hessian_block                1      50          -0.015266          -0.046594          -0.006741           0.098209           0.191248           0.000174          -0.014537          -0.049879           0.035227
hessian_block                1      51          -0.023301          -0.066751           0.016845           0.090167           0.166245           0.008894          -0.002575           0.024316          -0.058900
hessian_block                1      52           0.136837           0.316353           0.012735          -0.183459          -0.405443          -0.205431          -0.021196          -0.074906          -0.866935
hessian_block                1      53          -0.011840          -0.040924           0.005752           0.046996           0.070530           0.051987          -0.032000          -0.056667           0.047323
hessian_block                1      54           0.026827           0.073261          -0.039159           0.015116          -0.031201           0.048957           0.013272           0.039795           0.104338
hessian_block                1      55          -0.005897          -0.072129           0.125881          -0.028237          -0.021750           0.057817           0.018733           0.043939          -0.018155
hessian_block                1      56           0.044438           0.189693           0.009702          -0.486924          -1.046870          -0.035377           0.016877           0.020730          -0.004320
hessian_block                1      57          -0.014454          -0.067919           0.022989           0.060039           0.125056          -0.034816          -0.029230          -0.046169           0.026542
hessian_block                1      58          -0.007404          -0.048222           0.025668           0.058897           0.123817          -0.034504           0.029572           0.050715          -0.041405
hessian_block                1      59          -0.106276          -0.374596          -0.078845           0.239618           0.417999           0.215817          -0.024269          -0.059421          -0.000790
hessian_block                1      60           0.039201           0.064029           0.088933          -0.094696          -0.122702          -0.055024          -0.010366          -0.049531           0.045306
hessian_block                1      61           0.036444           0.059313           0.090557          -0.089768          -0.109253          -0.040466           0.006626           0.050104          -0.065758
hessian_block                1      62          -0.175359          -0.478596          -0.073689          -0.139718          -0.226271          -0.176300          -0.015006          -0.039066           0.001175
hessian_block                1      63          -0.016558          -0.029760          -0.057091           0.062342           0.103751           0.030554          -0.067118          -0.152191           0.007705
hessian_block                1      64          -0.017745          -0.022136           0.011112           0.070872           0.133068           0.017742           0.081861           0.224899           0.006377
hessian_block                1      65           0.054335           0.135746           0.379775          -0.015649          -0.078877          -0.121221          -0.071368          -0.143591          -0.233328
hessian_block                1      66           0.021941           0.066696          -0.351472           0.073806           0.166888           0.194314           0.068126           0.181148          -0.321021
hessian_block                1      67           0.147499           0.334733           0.081992           0.217572           0.400390           0.059683          -0.006620          -0.043415          -0.006637
hessian_block                1      68          -0.024429          -0.024487          -0.000989          -0.054187          -0.106605          -0.043083           0.034388           0.091551           0.021734
hessian_block                1      69          -0.029786          -0.040984           0.021893          -0.059208          -0.121540          -0.038649          -0.030023          -0.058553          -0.060891
hessian_block                1      70           0.030410           0.127234          -0.004349           0.224038           0.398059           0.007457          -0.040350          -0.115303          -0.848094
hessian_block                1      71          -0.043426          -0.141434           0.015104          -0.089883          -0.166531          -0.015253          -0.026089          -0.071090           0.112135
hessian_block                1      72          -0.005637          -0.027968          -0.030420          -0.116760          -0.253280          -0.023229           0.002536           0.058441           0.020694
hessian_block                1      73           0.011426           0.061307          -0.030109           0.081719           0.052296           0.046218           0.030241           0.079401           0.875781
hessian_block                1      74           0.090370           0.084543           0.018477           0.167638           0.415529           0.120106          -0.010016           0.003093           0.039871
hessian_block                1      75          -0.044262          -0.101384           0.017341          -0.036828          -0.059535          -0.031466          -0.004428          -0.071169          -0.050470
hessian_block                1      76          -0.004410           0.014788          -0.028068          -0.008359           0.028903          -0.024543           0.029087           0.093068          -0.111333
hessian_block                1      77           0.117962           0.346930           0.121202          -0.356534          -0.629768          -0.076737           0.005694           0.033012          -0.012546
hessian_block                1      78           0.011885          -0.018221           0.365165           0.139184           0.261213           0.197493          -0.013436          -0.040738           0.291935
hessian_block                1      79          -0.023419          -0.091916          -0.366578           0.053457           0.029105          -0.115929           0.004798          -0.028540           0.261198
hessian_block                1      80          -0.064190          -0.027539          -0.097196           0.154958           0.224571           0.173706          -0.021212          -0.029246           0.019729
hessian_block                1      81          -0.012432           0.002041          -0.018866           0.011541           0.078952          -0.035718           0.019217           0.001254           0.027279
hessian_block                1      82          -0.023861          -0.026068           0.005683           0.021938           0.107446          -0.044957          -0.006224           0.011269          -0.017358
hessian_block                1      83           0.028452           0.037951          -0.010983          -0.006374           0.092386          -0.054369           0.009361           0.012311           0.024636
hessian_block                1      84           0.031497           0.048305          -0.010871          -0.007106           0.090446          -0.071512          -0.006320           0.002318          -0.029548
hessian_block                1      85           0.054696          -0.054836           0.026305          -0.376177          -0.747625          -0.132929           0.009001           0.018633           0.017700
hessian_block                1      86          -0.023950          -0.040306          -0.061685           0.094019           0.151110           0.016369          -0.039452          -0.121050          -0.018119
hessian_block                1      87          -0.019008          -0.017602           0.004945           0.081243           0.114604           0.035841           0.019868           0.037534           0.001202
hessian_block                1      88          -0.102811          -0.204444          -0.091506          -0.276419          -0.570485           0.006171           0.003118          -0.011173           0.036908
hessian_block                1      89           0.038069           0.132379          -0.000184           0.115151           0.216302           0.022643           0.024094           0.078794           0.031986
hessian_block                1      90           0.039130           0.139185           0.002716           0.114767           0.217410           0.029922          -0.036097          -0.099219          -0.025011
hessian_block                1      91          -0.087860          -0.125022           0.010219           0.126309           0.444398          -0.076153           0.068877           0.151859           0.877493
hessian_block                1      92           0.032705           0.011294          -0.020693           0.194295           0.501252           0.031417          -0.001648           0.020807           0.027385
hessian_block                1      93          -0.037071          -0.086191           0.037924          -0.077462          -0.213994          -0.002881          -0.043901          -0.135998          -0.070981
hessian_block                1      94           0.004176           0.032708          -0.003726          -0.040532          -0.095673           0.030896           0.051670           0.150439          -0.089667
hessian_block                1      95           0.127935           0.277948          -0.035140           0.016698          -0.125968          -0.035754          -0.004991          -0.051270           0.038159
hessian_block                1      96          -0.045168          -0.038046           0.355162          -0.012127          -1.952943           1.948626           0.010407           1.729881          -1.285223
hessian_block                1      97          -0.076856          -0.106003          -0.376901          -0.108654          -2.209139          -1.949231          -0.013060          -1.711979          -1.274679
hessian_block                1      98          -0.098205          -0.092735          -0.060150           0.081202           0.247486           0.036693           0.004683           0.007279           0.006150
hessian_block                1      99           0.054851           0.108588          -0.008629           0.010369          -0.005780           0.021569           0.020646           0.033526           0.032671