lattice_vector     18.97306313      0.00000000     0.00000000
  constrain_relaxation y
  constrain_relaxation z
lattice_vector      0.00000000     21.90869587     0.00000000
  constrain_relaxation x
  constrain_relaxation z
lattice_vector      0.00000000      0.00000000     60.00000000
  constrain_relaxation .true.
atom       0.81808985      1.73405476     11.19453031 Mo
atom       3.98025663      1.73405456     11.19451304 Mo
atom       2.39918152      2.64692523     12.76316848 S
atom       2.39916358      2.64693311      9.62588049 S
atom       2.39917856      4.47266092     11.19453021 Mo
atom       0.81810606      5.38552142     12.76319922 S
atom       0.81809111      5.38554046      9.62588878 S
atom       7.14242831      1.73405120     11.19448387 Mo
atom       5.56135373      2.64692847     12.76314500 S
atom       5.56132547      2.64693626      9.62585828 S
atom       8.72353845      2.64693077     12.76310427 S
atom       8.72350333      2.64693881      9.62583221 S
atom       5.56134373      4.47266223     11.19450722 Mo
atom       3.98027146      5.38551880     12.76317555 S
atom       3.98024796      5.38553742      9.62587535 S
atom       8.72354118      4.47267251     11.19447547 Mo
atom       7.14245652      5.38551445     12.76314272 S
atom       7.14242467      5.38553240      9.62585068 S
atom       0.81810269      7.21125115     11.19455634 Mo
atom       3.98026902      7.21124909     11.19453736 Mo
atom       2.39919219      8.12411287     12.76320631 S
atom       2.39917296      8.12412787      9.62589932 S
atom       2.39919113      9.94983216     11.19456193 Mo
atom       0.81811264     10.86269956     12.76322310 S
atom       0.81809663     10.86270135      9.62591873 S
atom       7.14244161      7.21125131     11.19450901 Mo
atom       5.56136333      8.12411385     12.76317878 S
atom       5.56133524      8.12412910      9.62587965 S
atom       8.72355368      8.12411863     12.76313524 S
atom       8.72351986      8.12413346      9.62585808 S
atom       5.56135112      9.94983735     11.19453821 Mo
atom       3.98027497     10.86269757     12.76321316 S
atom       3.98025125     10.86269998      9.62589060 S
atom       8.72354326      9.94985147     11.19450690 Mo
atom       7.14245856     10.86269615     12.76317243 S
atom       7.14242676     10.86269806      9.62587367 S
atom      10.30464039      1.73407624     11.19444597 Mo
atom      13.46681874      1.73406466     11.19441593 Mo
atom      11.88575155      2.64693666     12.76308028 S
atom      11.88572131      2.64694426      9.62578695 S
atom      11.88573667      4.47266619     11.19443889 Mo
atom      10.30466727      5.38552932     12.76310857 S
atom      10.30463368      5.38554649      9.62581564 S
atom      16.62899791      1.73406211     11.19439621 Mo
atom      15.04792549      2.64693326     12.76305180 S
atom      15.04790500      2.64694074      9.62576335 S
atom      18.21008278      2.64693347     12.76304073 S
atom      18.21006934      2.64694098      9.62574348 S
atom      15.04791800      4.47266474     11.19441374 Mo
atom      13.46684782      5.38553114     12.76307873 S
atom      13.46682270      5.38554885      9.62578459 S
atom      18.21007964      4.47266036     11.19439770 Mo
atom      16.62900775      5.38552928     12.76305773 S
atom      16.62899129      5.38554775      9.62576529 S
atom      10.30465135      7.21125777     11.19447241 Mo
atom      13.46682822      7.21127008     11.19444388 Mo
atom      11.88575985      8.12412343     12.76311511 S
atom      11.88573069      8.12413771      9.62581172 S
atom      11.88575002      9.94984585     11.19447184 Mo
atom      10.30467632     10.86270512     12.76313875 S
atom      10.30464382     10.86270510      9.62583884 S
atom      16.62901105      7.21125336     11.19442391 Mo
atom      15.04793380      8.12412164     12.76308411 S
atom      15.04791338      8.12413548      9.62579229 S
atom      18.21009716      8.12412015     12.76307728 S
atom      18.21008241      8.12413452      9.62576681 S
atom      15.04792245      9.94984366     11.19444699 Mo
atom      13.46685039     10.86270942     12.76311216 S
atom      13.46682555     10.86270889      9.62580529 S
atom      18.21008329      9.94983627     11.19443103 Mo
atom      16.62901473     10.86270565     12.76309291 S
atom      16.62899812     10.86270597      9.62578498 S
atom       0.81809786     12.68839740     11.19457005 Mo
atom       3.98026611     12.68838656     11.19455113 Mo
atom       2.39918910     13.60125939     12.76321024 S
atom       2.39917005     13.60124086      9.62590208 S
atom       2.39916910     15.42696518     11.19454381 Mo
atom       0.81809765     16.33984781     12.76319609 S
atom       0.81808310     16.33981959      9.62589026 S
atom       7.14243337     12.68839576     11.19452277 Mo
atom       5.56135491     13.60125905     12.76318608 S
atom       5.56132703     13.60124095      9.62587956 S
atom       8.72354859     13.60126487     12.76314810 S
atom       8.72351435     13.60124615      9.62585160 S
atom       5.56134994     15.42696729     11.19452068 Mo
atom       3.98026239     16.33984054     12.76316941 S
atom       3.98023896     16.33981367      9.62588142 S
atom       8.72353336     15.42697593     11.19448880 Mo
atom       7.14244869     16.33984865     12.76314552 S
atom       7.14241654     16.33982074      9.62584735 S
atom       0.81808559     18.16554750     11.19452447 Mo
atom       3.98025361     18.16555354     11.19450718 Mo
atom       2.39917498     19.07843886     12.76315283 S
atom       2.39915742     19.07841289      9.62586291 S
atom       2.39916736     20.90415509     11.19449285 Mo
atom       0.81809478     21.81702833     12.76314443 S
atom       0.81808082     21.81701743      9.62584727 S
atom       7.14242458     18.16555583     11.19447826 Mo
atom       5.56134870     19.07844088     12.76313283 S
atom       5.56132030     19.07841513      9.62583735 S
atom       8.72353587     19.07844321     12.76309697 S
atom       8.72350054     19.07841726      9.62580599 S
atom       5.56134169     20.90415338     11.19446957 Mo
atom       3.98026453     21.81702443     12.76312688 S
atom       3.98024138     21.81701390      9.62583017 S
atom       8.72351949     20.90416081     11.19443801 Mo
atom       7.14244331     21.81702783     12.76309826 S
atom       7.14241088     21.81701653      9.62580068 S
atom      10.30463912     12.68840535     11.19448566 Mo
atom      13.46682842     12.68840378     11.19445695 Mo
atom      11.88575909     13.60126649     12.76311637 S
atom      11.88572961     13.60124581      9.62581583 S
atom      11.88573252     15.42697274     11.19445200 Mo
atom      10.30465780     16.33985545     12.76310490 S
atom      10.30462385     16.33982536      9.62581690 S
atom      16.62899799     12.68840105     11.19443716 Mo
atom      15.04792685     13.60127072     12.76309152 S
atom      15.04790666     13.60124929      9.62578967 S
atom      18.21009012     13.60126510     12.76308053 S
atom      18.21007549     13.60124453      9.62576880 S
atom      15.04791677     15.42697712     11.19442670 Mo
atom      13.46683609     16.33985797     12.76307200 S
atom      13.46681093     16.33982700      9.62578735 S
atom      18.21007136     15.42697394     11.19441123 Mo
atom      16.62900337     16.33985134     12.76306390 S
atom      16.62898714     16.33982138      9.62575616 S
atom      10.30462586     18.16556520     11.19443993 Mo
atom      13.46682386     18.16556549     11.19440978 Mo
atom      11.88574503     19.07844671     12.76305548 S
atom      11.88571437     19.07841923      9.62577689 S
atom      11.88574219     20.90416341     11.19440005 Mo
atom      10.30465283     21.81703658     12.76305077 S
atom      10.30461807     21.81702398      9.62577624 S
atom      16.62898872     18.16555790     11.19439037 Mo
atom      15.04792297     19.07844863     12.76304032 S
atom      15.04790299     19.07842025      9.62573973 S
atom      18.21007636     19.07844614     12.76302187 S
atom      18.21006283     19.07841883      9.62572819 S
atom      15.04789914     20.90416205     11.19437407 Mo
atom      13.46683733     21.81704316     12.76303021 S
atom      13.46681158     21.81703087      9.62573338 S
atom      18.21007168     20.90416040     11.19435938 Mo
atom      16.62899553     21.81703498     12.76301155 S
atom      16.62898012     21.81702305      9.62571247 S
