# 
# This is the geometry file that corresponds to the current relaxation step.
# If you do not want this file to be written, set the "write_restart_geometry" flag to .false.
#  aims_uuid : 4D833A2F-D4ED-4358-AB13-610BBB2CD211                                
# 
  set_vacuum_level        26.112428
lattice_vector     18.95594913      0.00000000      0.00000000
  constrain_relaxation y
  constrain_relaxation z
lattice_vector      0.00000000     21.88790891      0.00000000
  constrain_relaxation x
  constrain_relaxation z
lattice_vector      0.00000000      0.00000000     30.00000000
  constrain_relaxation .true.
atom       0.82182797      1.73618704     11.20825327 Mo
atom       3.98336567      1.74156935     11.20172493 Mo
atom       2.40464816      2.65231691     12.77407147 S
atom       2.39792668      2.64618600      9.63399334 S
atom       2.40128564      4.47273738     11.19983282 Mo
atom       0.82409289      5.38764093     12.77109334 S
atom       0.81938169      5.38019223      9.63073268 S
atom       7.14130902      1.74806041     11.19070769 Mo
atom       5.56885848      2.66561416     12.76258175 S
atom       5.55575609      2.65194995      9.62287231 S
atom       8.71980720      2.68118774     12.74706882 S
atom       8.71977891      2.65203027      9.61195411 S
atom       5.55830149      4.48368014     11.18332367 Mo
atom       3.98773514      5.39025087     12.76228033 S
atom       3.97208153      5.37858196      9.61960565 S
atom       8.71980257      4.49685347     11.16014793 Mo
atom       7.16667250      5.43223723     12.73324680 S
atom       7.12319380      5.39487430      9.59054148 S
atom       0.82453973      7.20735492     11.19593422 Mo
atom       3.98808961      7.20125695     11.18110163 Mo
atom       2.41598582      8.11981442     12.75779025 S
atom       2.40129129      8.11294356      9.61838193 S
atom       2.40944037      9.93888537     11.18482375 Mo
atom       0.82907189     10.84945689     12.75850572 S
atom       0.82173626     10.85282475      9.62143094 S
atom       7.17765084      7.23009069     11.12569198 Mo
atom       5.61339219      8.12077920     12.73138736 S
atom       5.56137459      8.09925784      9.58889109 S
atom       8.71980412      8.12130711     12.40629828 O
atom       8.71978109      8.11975424      9.52078918 S
atom       5.58060865      9.93206366     11.15706682 Mo
atom       4.00612393     10.83986829     12.74210516 S
atom       3.98358510     10.85365829      9.60739686 S
atom       8.71980146      9.90095357     11.12454575 Mo
atom       7.16678180     10.81010743     12.73043364 S
atom       7.15799914     10.86496367      9.58802579 S
atom      10.29828759      1.74805829     11.19067361 Mo
atom      13.45622621      1.74157189     11.20166123 Mo
atom      11.87075121      2.66561427     12.76253554 S
atom      11.88382484      2.65194993      9.62281653 S
atom      11.88129869      4.48366850     11.18327357 Mo
atom      10.27295321      5.43224617     12.73322369 S
atom      10.31638130      5.39487372      9.59051117 S
atom      16.61776640      1.73618446     11.20822129 Mo
atom      15.03493752      2.65231198     12.77402446 S
atom      15.04168797      2.64618256      9.63394039 S
atom      18.19776008      2.65050426     12.77709853 S
atom      18.19778844      2.64579283      9.63800036 S
atom      15.03830175      4.47273527     11.19978294 Mo
atom      13.45186445      5.39025959     12.76222983 S
atom      13.46752157      5.37858517      9.61955427 S
atom      18.19777595      4.47234471     11.20438930 Mo
atom      16.61548465      5.38764145     12.77106262 S
atom      16.62024082      5.38019220      9.63071313 S
atom      10.26195344      7.23008875     11.12565190 Mo
atom      13.45151233      7.20126555     11.18104714 Mo
atom      11.82621702      8.12078125     12.73134295 S
atom      11.87821381      8.09925649      9.58884127 S
atom      11.85900591      9.93206488     11.15701648 Mo
atom      10.27285025     10.81011192     12.73039928 S
atom      10.28158379     10.86495902      9.58799572 S
atom      16.61506729      7.20736173     11.19590867 Mo
atom      15.02360673      8.11981314     12.75775080 S
atom      15.03832744      8.11293333      9.61832893 S
atom      18.19776662      8.12078605     12.76475476 S
atom      18.19779037      8.11570104      9.62617862 S
atom      15.03017348      9.93886649     11.18477155 Mo
atom      13.43349256     10.83987916     12.74203833 S
atom      13.45603328     10.85365034      9.60733505 S
atom      18.19778328      9.94082828     11.19238728 Mo
atom      16.61051130     10.84946281     12.75847243 S
atom      16.61789547     10.85282105      9.62140103 S
atom       0.82427221     12.67533273     11.19258132 Mo
atom       3.98898694     12.67298886     11.18561122 Mo
atom       2.40925240     13.58049572     12.76119671 S
atom       2.40301349     13.59209787      9.62393300 S
atom       2.40407026     15.41185153     11.19941034 Mo
atom       0.82354545     16.32026434     12.77152799 S
atom       0.82221458     16.32813047      9.63393100 S
atom       7.15037417     12.67661520     11.17987817 Mo
atom       5.56967560     13.57660269     12.75793203 S
atom       5.56579655     13.59448215      9.61865482 S
atom       8.71981734     13.58387287     12.75947213 S
atom       8.71978377     13.60240786      9.61709046 S
atom       5.56371138     15.41183776     11.19719467 Mo
atom       3.98465217     16.32100648     12.77000161 S
atom       3.98243880     16.32923264      9.63212971 S
atom       8.71981193     15.41663252     11.19673015 Mo
atom       7.14120635     16.32535286     12.76922467 S
atom       7.14058082     16.33271032      9.62976818 S
atom       0.82238775     18.14976960     11.20704018 Mo
atom       3.98274992     18.15134606     11.20508606 Mo
atom       2.40355424     19.06204656     12.77616720 S
atom       2.40140788     19.06474165      9.63833914 S
atom       2.40252939     20.88909232     11.20830082 Mo
atom       0.82284797     21.80011995     12.77888056 S
atom       0.82085065     21.79893253      9.64013953 S
atom       7.14071893     18.15438468     11.20279831 Mo
atom       5.56263491     19.06699283     12.77327836 S
atom       5.56011358     19.06680743      9.63510511 S
atom       8.71981572     19.06964552     12.77119567 S
atom       8.71977725     19.06735563      9.63302854 S
atom       5.56175323     20.89284881     11.20328649 Mo
atom       3.98503646     21.80632350     12.77423577 S
atom       3.97951012     21.80179482      9.63585843 S
atom       8.71979539     20.89472486     11.19967010 Mo
atom       7.14292802     21.81422733     12.76692001 S
atom       7.13882874     21.80286792      9.62919810 S
atom      10.28923151     12.67661654     11.17984188 Mo
atom      13.45060329     12.67299913     11.18554089 Mo
atom      11.86994858     13.57661548     12.75787469 S
atom      11.87379396     13.59447937      9.61858454 S
atom      11.87588175     15.41184547     11.19712328 Mo
atom      10.29843000     16.32535632     12.76919393 S
atom      10.29899059     16.33270971      9.62971778 S
atom      16.61534130     12.67532979     11.19254591 Mo
atom      15.03034423     13.58049966     12.76112353 S
atom      15.03661645     13.59208690      9.62387704 S
atom      18.19776675     13.58268579     12.76425740 S
atom      18.19779951     13.59114713      9.62673667 S
atom      15.03553770     15.41186832     11.19933973 Mo
atom      13.45495045     16.32100671     12.76992254 S
atom      13.45716428     16.32922385      9.63204630 S
atom      18.19777926     15.41184503     11.20078995 Mo
atom      16.61603566     16.32026432     12.77149331 S
atom      16.61743089     16.32812517      9.63388462 S
atom      10.29888924     18.15438425     11.20275608 Mo
atom      13.45685830     18.15134528     11.20500368 Mo
atom      11.87698226     19.06699438     12.77321058 S
atom      11.87946688     19.06680771      9.63503560 S
atom      11.87785726     20.89285114     11.20322049 Mo
atom      10.29669752     21.81422343     12.76688554 S
atom      10.30073849     21.80286646      9.62916337 S
atom      16.61721234     18.14976541     11.20699821 Mo
atom      15.03603167     19.06204739     12.77610219 S
atom      15.03821500     19.06474136      9.63826737 S
atom      18.19775620     19.05990169     12.77764641 S
atom      18.19779437     19.06356979      9.63939817 S
atom      15.03705335     20.88909240     11.20823455 Mo
atom      13.45456498     21.80632776     12.77417308 S
atom      13.46009042     21.80180431      9.63578170 S
atom      18.19777912     20.88677709     11.21021558 Mo
atom      16.61672263     21.80011553     12.77884125 S
atom      16.61877926     21.79893116      9.64010876 S
atom       8.71986730      8.12240198     13.39475686 H
# 
# What follows is the current estimated Hessian matrix constructed by the BFGS algorithm.
# This is NOT the true Hessian matrix of the system.
# If you do not want this information here, switch it off using the "hessian_to_restart_geometry" keyword.
# 
trust_radius             0.0004378864
hessian_block                1       1           9.550631           0.324428          -0.075766           0.324428          10.879424          -0.075525          -0.075766          -0.075525          10.770003
hessian_block                1       2          -0.323180           0.704179          -0.058593           0.422360           0.620390           0.039573          -0.137100          -0.108796           0.068538
hessian_block                1       3          -1.768907          -0.837881          -1.406807          -0.886105          -1.009152          -0.807016          -1.328486          -0.774205          -1.465761
hessian_block                1       4          -1.762593          -0.805758           1.496870          -0.882907          -1.006106           0.877532           1.466980           0.837787          -1.519501
hessian_block                1       5           0.729790          -1.261329          -0.087193          -0.287172          -0.646362          -0.035336          -0.151856          -0.125373           0.082006
hessian_block                1       6          -0.103817          -0.203739           0.046285          -0.020526           0.285686           0.002939           0.045646           0.068910          -0.080262
hessian_block                1       7          -0.102160          -0.202990           0.066052          -0.010643           0.310645          -0.004935           0.105796          -0.003595          -0.032968
hessian_block                1       8           0.145363           0.236012           0.068029          -1.100606           0.354304           0.009230          -0.164312          -0.186627           0.129761
hessian_block                1       9           0.244819          -0.140928          -0.012296           0.156761          -0.155957          -0.013825           0.078520           0.085492           0.012713
hessian_block                1      10           0.215922          -0.164450          -0.008582           0.142688          -0.134831          -0.032402           0.032470           0.040370          -0.055827
hessian_block                1      11          -0.217906           0.062843          -0.002005           0.021082           0.058436          -0.019498           0.040029           0.133786          -0.039215
hessian_block                1      12          -0.197036           0.082973           0.022610          -0.012295           0.030282          -0.012104           0.016464           0.030938           0.001422
hessian_block                1      13          -1.320884           0.418525           0.060779          -0.364460          -0.549459           0.106642           0.047591          -0.079391           0.002953
hessian_block                1      14           0.091941           0.197431          -0.009782           0.090311           0.198099          -0.002501           0.113502          -0.073029           0.076950
hessian_block                1      15           0.076094           0.209498           0.030927           0.072995           0.199570           0.018110          -0.085632           0.219961          -0.060937
hessian_block                1      16           0.878083           0.038635          -0.063026           0.611296          -0.618264          -0.057530           0.128037          -0.000679          -0.023657
hessian_block                1      17           0.020447           0.106592          -0.037040          -0.017211           0.102575          -0.001264          -0.027439          -0.044629          -0.052894
hessian_block                1      18           0.037582           0.043102          -0.049081           0.081287           0.104249           0.012108          -0.109632          -0.150253           0.069215
hessian_block                1      19           0.194784           0.960208           0.005484           0.399128           0.969683          -0.012693          -0.167332          -0.136731           0.121403
hessian_block                1      20          -0.212298          -0.509622           0.125055           0.063947          -0.166914          -0.000543           0.080583          -0.098401          -0.006498
hessian_block                1      21           0.108001           0.059619          -0.018448          -0.057311          -0.084223           0.001775           0.083580           0.194969          -0.029198
hessian_block                1      22           0.077242           0.057241          -0.023064          -0.067681          -0.112179           0.007385           0.031256          -0.005918          -0.052463
hessian_block                1      23          -0.387029          -0.959313           0.026138           0.258015           0.205668           0.045953          -0.127501          -0.190053           0.128958
hessian_block                1      24          -0.079177          -0.053808           0.001449           0.069660           0.036541           0.001654           0.107713           0.131570          -0.075502
hessian_block                1      25          -0.080375          -0.065378           0.034295           0.070926           0.035980          -0.014839           0.095756           0.036691          -0.092765
hessian_block                1      26           0.044199          -0.178822           0.014660          -0.248579           0.202208          -0.024828           0.245951           0.366277           0.028384
hessian_block                1      27           0.037676           0.118043          -0.044102           0.057673           0.019626          -0.027528           0.004882          -0.058288          -0.034026
hessian_block                1      28           0.129169           0.052595          -0.030208          -0.077534           0.008048          -0.047746          -0.129462          -0.189814           0.055187
hessian_block                1      29          -0.397227           0.029554           0.044701          -0.222515          -0.068784          -0.024528          -1.203249          -0.205147           0.091393
hessian_block                1      30           0.086744           0.066387          -0.031506           0.097823          -0.088955          -0.004477          -0.066668          -0.082524          -0.046556
hessian_block                1      31          -0.148474           0.401504          -0.125413           0.433783           0.296460           0.002019           0.197665           0.102630          -0.043173
hessian_block                1      32           0.100350           0.092312          -0.000709           0.014655          -0.000337          -0.036981           0.037355           0.084488          -0.053833
hessian_block                1      33           0.044816           0.096452           0.027139           0.055799           0.002709          -0.014517          -0.017526           0.066132          -0.000630
hessian_block                1      34          -0.110705           0.001963           0.090253          -0.046315           0.072383           0.166142          -0.172921          -0.000959           0.009451
hessian_block                1      35          -0.103759          -0.158190           0.086266           0.029282          -0.024527           0.055125          -0.015530           0.006507           0.005917
hessian_block                1      36          -0.000532          -0.084319           0.043904           0.060108          -0.035606           0.010739          -0.016465          -0.021308           0.038971
hessian_block                1      37          -0.317254          -0.488781          -0.005264           0.596545           0.276869          -0.024809          -0.137180          -0.194969           0.101720
hessian_block                1      38           0.608248          -0.026472           0.058939          -0.124372           0.019387           0.047244          -0.120092          -0.177197           0.094337
hessian_block                1      39           0.083752           0.060628           0.000920           0.067796          -0.050713          -0.021937           0.020168           0.004942          -0.028414
hessian_block                1      40           0.070289           0.052032          -0.022132           0.037251          -0.034984          -0.021855           0.034352           0.125879          -0.058593
hessian_block                1      41          -0.171815          -0.238804          -0.067082          -0.629799           0.058504           0.065790           0.073735          -0.069161           0.056991
hessian_block                1      42           0.091320          -0.113769           0.066925          -0.021495          -0.078321           0.055723           0.067806           0.103462          -0.020949
hessian_block                1      43           0.076591          -0.039501           0.005332          -0.030588           0.045830           0.037245          -0.202220          -0.010779           0.063228
hessian_block                1      44          -1.492770          -0.800877           0.060565           0.269095           0.944182           0.003106          -0.090416          -0.089625           0.038074
hessian_block                1      45           0.129979           0.195526          -0.017052          -0.070929          -0.139545          -0.019807           0.124438          -0.016072           0.002193
hessian_block                1      46           0.139568           0.180965          -0.023254          -0.079004          -0.131315          -0.023195          -0.021688           0.164857          -0.085531
hessian_block                1      47          -1.503987           0.682889           1.457779           0.757458          -0.801172          -0.838639           1.466435          -0.700203          -1.500598
hessian_block                1      48          -1.512112           0.676683          -1.447957           0.763268          -0.785666           0.823857          -1.397813           0.774496          -1.501297
hessian_block                1      49          -0.164903           0.323699           0.025331           0.154545          -0.133588           0.032788          -0.041452          -0.145759           0.053784
hessian_block                1      50          -0.073113          -0.018836           0.024302           0.043291          -0.012737          -0.006826           0.026885          -0.057929           0.026442
hessian_block                1      51          -0.051632          -0.048707           0.025530           0.058598           0.002717          -0.010254          -0.043527           0.102063          -0.055669
hessian_block                1      52           0.231230           1.117409          -0.071646          -0.365769          -2.054098           0.011353          -0.104398          -0.109591           0.104056
hessian_block                1      53          -0.070506          -0.078129           0.001119           0.086988           0.231534          -0.020738          -0.052151           0.052296          -0.068487
hessian_block                1      54          -0.061502          -0.082107          -0.011728           0.087938           0.230844          -0.020513           0.163333           0.087647          -0.040934
hessian_block                1      55          -0.219560           0.055174           0.081021           0.191052           0.239173          -0.054041           0.086079          -0.144821           0.049202
hessian_block                1      56           0.784623          -0.039454          -0.138664           0.132305           0.067564           0.070173           0.045385          -0.129466           0.025718
hessian_block                1      57           0.042504          -0.028736           0.010253           0.017252           0.052262          -0.034028          -0.032190           0.086606          -0.029861
hessian_block                1      58           0.012056           0.067498          -0.019901           0.011323          -0.007755          -0.008878          -0.160347          -0.147000           0.069785
hessian_block                1      59          -0.619453          -0.372083           0.013247          -0.759067          -0.117881           0.023909           0.280958           0.183110          -0.035464
hessian_block                1      60           0.203596           0.103851          -0.057453           0.112772           0.076281           0.022079          -0.013367           0.064836          -0.070522
hessian_block                1      61           0.178595           0.064454          -0.054029           0.098568           0.187346          -0.018309          -0.103407          -0.144765           0.118584
hessian_block                1      62          -0.255729          -0.433985          -0.040207           0.033226           0.408028           0.053991          -0.129963          -0.174502           0.120536
hessian_block                1      63          -0.152276           0.068840           0.039867          -0.120556          -0.028015          -0.030283           0.011395           0.026379          -0.020922
hessian_block                1      64          -0.141868           0.058040           0.033489          -0.106577          -0.020845          -0.018166           0.030104           0.146309          -0.054636
hessian_block                1      65          -0.062473          -0.204572           0.024567           0.056040          -0.097379           0.017437           0.132472           0.137923          -0.089128
hessian_block                1      66          -0.056618          -0.197980           0.024353           0.056353          -0.088294           0.024107           0.045516          -0.029778          -0.062406
hessian_block                1      67           0.290827           0.153660          -0.153158           0.195429          -0.130492           0.073804           0.003077          -0.193560           0.059925
hessian_block                1      68           0.027687           0.022240           0.039971           0.183308           0.031699          -0.002102          -0.150893          -0.077825          -0.034067
hessian_block                1      69           0.053817           0.022528           0.039812           0.194124           0.024839           0.003002           0.001928           0.160991          -0.012466
hessian_block                1      70           0.461745           0.725266          -0.097463          -0.302560          -0.729143          -0.042469          -0.204966          -0.160786           0.156468
hessian_block                1      71          -0.127787          -0.103393           0.044857           0.107396           0.134075          -0.015765          -0.013142          -0.071435          -0.038022
hessian_block                1      72          -0.111748          -0.100405           0.012404           0.095019           0.129704          -0.031749           0.161407           0.265293          -0.097479
hessian_block                1      73           0.300229           0.458251           0.075161          -0.416095           0.874926          -0.034807          -0.185362          -0.140752           0.127889
hessian_block                1      74           0.073226          -0.199610          -0.031695          -0.523434          -0.367974           0.072747          -0.101343          -0.218599           0.075130
hessian_block                1      75          -0.120279           0.052019          -0.034421           0.117827           0.066677           0.007296           0.171218           0.153162          -0.052052
hessian_block                1      76          -0.127365           0.041323          -0.006747           0.099074           0.039341           0.000711          -0.022760           0.025428          -0.073120
hessian_block                1      77           0.085624          -0.985076           0.043436          -0.166335          -1.025859          -0.000137          -0.109177          -0.107150           0.062394
hessian_block                1      78           0.112439          -0.007250          -0.021524           0.065332           0.208225          -0.042424           0.009552           0.167367          -0.032744
hessian_block                1      79           0.108953          -0.018898          -0.018718           0.058515           0.192276          -0.027422           0.047711          -0.094989          -0.022186
hessian_block                1      80           0.056150           0.539256          -0.064943          -0.386142          -0.063194          -0.140465           0.103333          -0.003709           0.023898
hessian_block                1      81           0.085531           0.021158           0.010529           0.030067           0.000023           0.018121          -0.083037          -0.020885          -0.027644
hessian_block                1      82           0.062560           0.036783           0.007548           0.035937          -0.016795           0.003714           0.093582           0.147721          -0.045098
hessian_block                1      83          -0.204420           0.006109           0.060930           0.022151          -0.002002           0.049088           0.009402          -0.050726           0.037318
hessian_block                1      84          -0.166512           0.011775           0.058281           0.016643          -0.023817           0.066432          -0.098944           0.021662          -0.011686
hessian_block                1      85          -0.267056          -0.300831          -0.001510           0.323529           0.013897          -0.011348          -0.095194          -0.166959           0.086667
hessian_block                1      86          -0.007244           0.107705          -0.017428          -0.033483           0.104919           0.014043          -0.009918           0.030552          -0.050062
hessian_block                1      87          -0.002844           0.110567          -0.006061          -0.034030           0.107049           0.006419           0.103276           0.061637          -0.019401
hessian_block                1      88           0.348445          -0.239658          -0.030541          -0.200738           0.407298          -0.085654          -0.034496          -0.089912           0.045785
hessian_block                1      89           0.003057           0.103463           0.016826           0.044726          -0.019306          -0.010977           0.047916          -0.050793           0.019225
hessian_block                1      90           0.007238           0.120736           0.015167           0.051213          -0.014220          -0.020032           0.032410           0.156458          -0.070453
hessian_block                1      91          -0.569046           0.142592          -0.025652          -0.182020           1.150140           0.049146          -0.013634          -0.032333          -0.025107
hessian_block                1      92           0.370043           0.490388           0.025091           0.386758           0.564190          -0.072545          -0.058760          -0.029507           0.016861
hessian_block                1      93          -0.051584           0.008801          -0.015920          -0.227317          -0.167527           0.014314          -0.007539          -0.043901          -0.015980
hessian_block                1      94          -0.054727           0.004197          -0.012515          -0.225992          -0.174461           0.021772           0.036825           0.091566          -0.014156
hessian_block                1      95           0.175089          -0.630763          -0.035210           0.803785          -1.245710          -0.066344          -0.055114          -0.061954           0.022802
hessian_block                1      96          -0.322821          -0.006783           0.004848          -0.011686          -1.797246           1.698679          -0.005599           1.704006          -1.517635
hessian_block                1      97          -0.321053          -0.002931          -0.000434          -0.006463          -1.810957          -1.664960           0.050819          -1.630428          -1.452445
hessian_block                1      98          -0.594672           0.193993          -0.060674          -0.407290           0.030169           0.090208          -0.116631          -0.041217           0.064144
hessian_block                1      99           0.196578          -0.179390           0.020519           0.002300          -0.127794           0.007195           0.081041          -0.036371          -0.024639