# 
# This is the geometry file that corresponds to the current relaxation step.
# If you do not want this file to be written, set the "write_restart_geometry" flag to .false.
#  aims_uuid : F3AB908D-70D3-42AD-A75B-CCCE4388F477                                
# 
  set_vacuum_level        26.884190
lattice_vector     18.97686384      0.00000000      0.00000000
  constrain_relaxation y
  constrain_relaxation z
lattice_vector      0.00000000     21.91360147      0.00000000
  constrain_relaxation x
  constrain_relaxation z
lattice_vector      0.00000000      0.00000000     30.00000000
  constrain_relaxation .true.
atom       0.82058216      1.73202598     11.18835296 Mo
atom       3.98300458      1.73204699     11.18871006 Mo
atom       2.40143042      2.64400812     12.75748078 S
atom       2.40186140      2.64597121      9.62033447 S
atom       2.40130632      4.47079283     11.19032933 Mo
atom       0.82046980      5.38284098     12.75964938 S
atom       0.81998494      5.38579289      9.62281784 S
atom       7.14594185      1.73256568     11.19014385 Mo
atom       5.56346880      2.64363306     12.75851044 S
atom       5.56501714      2.64614131      9.62137923 S
atom       8.72709490      2.64334115     12.76041686 S
atom       8.72825017      2.64757594      9.62341778 S
atom       5.56419105      4.47040293     11.19172744 Mo
atom       3.98117079      5.38151922     12.76062723 S
atom       3.98303557      5.38553473      9.62347551 S
atom       8.72724471      4.47124873     11.19491605 Mo
atom       7.14347023      5.37782020     12.76505970 S
atom       7.14700663      5.38528727      9.62555263 S
atom       0.82013185      7.21061128     11.19316330 Mo
atom       3.98116986      7.20955315     11.19464630 Mo
atom       2.39983754      8.12223583     12.76307450 S
atom       2.40148807      8.12477521      9.62564025 S
atom       2.40128911      9.95024513     11.19560356 Mo
atom       0.82053667     10.86362995     12.76366928 S
atom       0.82041047     10.86323139      9.62667202 S
atom       7.13992653      7.20475972     11.19936670 Mo
atom       5.55923900      8.11845481     12.76699155 S
atom       5.56491034      8.12531495      9.63035329 S
atom       8.71978209      8.10907311     12.77454153 S
atom       8.72839014      8.12990737      9.63771721 S
atom       5.55755238      9.94676510     11.20286918 Mo
atom       3.97744742     10.86411159     12.76806399 S
atom       3.98497803     10.86319031      9.62946083 S
atom       8.74113673      9.95397413     11.20849434 Mo
atom       7.13246850     10.86508559     12.77611964 S
atom       7.15157585     10.85995441      9.64019033 S
atom      10.30912496      1.73277201     11.19133030 Mo
atom      13.47223284      1.73272476     11.19073334 Mo
atom      11.89068454      2.64292864     12.76115534 S
atom      11.89024644      2.64797755      9.62399404 S
atom      11.89044831      4.47115664     11.19606538 Mo
atom      10.30819475      5.38014510     12.76745429 S
atom      10.30959488      5.39019577      9.63017059 S
atom      16.63507021      1.73226273     11.18913854 Mo
atom      15.05461223      2.64351439     12.75935836 S
atom      15.05284725      2.64707592      9.62229157 S
atom      18.21667758      2.64402593     12.75779365 S
atom      18.21579428      2.64630904      9.62068680 S
atom      15.05346407      4.47094575     11.19326015 Mo
atom      13.47398753      5.37769718     12.76685167 S
atom      13.47038842      5.38747560      9.62831882 S
atom      18.21612213      4.47103523     11.19085894 Mo
atom      16.63658179      5.38197828     12.76179188 S
atom      16.63383675      5.38621005      9.62465101 S
atom      10.30803578      7.21022273     11.20482971 Mo
atom      13.47695027      7.20654217     11.20329456 Mo
atom      11.89637139      8.10565291     12.77887484 S
atom      11.88954196      8.13373622      9.64401014 S
atom      11.87723315      9.95809967     11.22426104 Mo
atom      10.31438069     10.86049463     12.74822870 S
atom      10.31381817     10.86086089      9.61870211 S
atom      16.63566313      7.21018622     11.19595411 Mo
atom      15.05874565      8.12046025     12.76982450 S
atom      15.05110120      8.12576591      9.63239120 S
atom      18.21774592      8.12276969     12.76343922 S
atom      18.21501120      8.12482995      9.62621883 S
atom      15.05970611      9.94816634     11.20399542 Mo
atom      13.49060203     10.86748512     12.77932172 S
atom      13.46357750     10.85971288      9.64442266 S
atom      18.21638960      9.95052508     11.19579266 Mo
atom      16.64090392     10.86515814     12.76856289 S
atom      16.63246842     10.86369523      9.62995827 S
atom       0.82094575     12.68963070     11.19481653 Mo
atom       3.98343894     12.68940483     11.19772899 Mo
atom       2.40106973     13.60438679     12.76362163 S
atom       2.40356099     13.60120206      9.62662969 S
atom       2.40251008     15.42880672     11.19319802 Mo
atom       0.82110779     16.34362859     12.76028085 S
atom       0.82140924     16.34020748      9.62335234 S
atom       7.14688383     12.68940352     11.20476042 Mo
atom       5.56250224     13.60475598     12.76802225 S
atom       5.56937230     13.59979907      9.63159248 S
atom       8.71949680     13.61436814     12.77590792 S
atom       8.73362990     13.59973873      9.64006394 S
atom       5.56520673     15.42927837     11.19677762 Mo
atom       3.98204599     16.34398401     12.76204598 S
atom       3.98528495     16.33990265      9.62505719 S
atom       8.72734275     15.43723576     11.20228149 Mo
atom       7.14260332     16.34802468     12.76675210 S
atom       7.14768012     16.34017657      9.62818098 S
atom       0.82116296     18.16791710     11.18992220 Mo
atom       3.98367914     18.16815542     11.19108492 Mo
atom       2.40181101     19.08214159     12.75817663 S
atom       2.40288737     19.07972729      9.62110268 S
atom       2.40212809     20.90685412     11.18842730 Mo
atom       0.82079126     21.81983647     12.75672540 S
atom       0.82084419     21.81971779      9.61959705 S
atom       7.14599445     18.16917678     11.19322970 Mo
atom       5.56374021     19.08337818     12.75953603 S
atom       5.56569399     19.08009237      9.62253891 S
atom       8.72739848     19.08476566     12.76122323 S
atom       8.72786249     19.08103473      9.62380564 S
atom       5.56465458     20.90752195     11.18944497 Mo
atom       3.98270364     21.82014320     12.75725376 S
atom       3.98372184     21.81978918      9.62005876 S
atom       8.72750734     20.90815914     11.19069105 Mo
atom       7.14540566     21.82066267     12.75847572 S
atom       7.14662225     21.82056997      9.62131320 S
atom      10.31292018     12.67621232     11.20858737 Mo
atom      13.47241407     12.69099722     11.20542093 Mo
atom      11.89966363     13.61727513     12.77479416 S
atom      11.88645007     13.59920700      9.63799568 S
atom      11.89317852     15.43759569     11.19948933 Mo
atom      10.31115279     16.35010019     12.76659078 S
atom      10.30883867     16.34117333      9.62998693 S
atom      16.63555868     12.69010138     11.19783453 Mo
atom      15.05680126     13.60611045     12.76852472 S
atom      15.04991264     13.59951874      9.63122825 S
atom      18.21795143     13.60485054     12.76365740 S
atom      18.21550078     13.60130988      9.62649114 S
atom      15.05419722     15.42955351     11.19572316 Mo
atom      13.47684735     16.34802090     12.76546850 S
atom      13.47280469     16.34095607      9.62596659 S
atom      18.21688170     15.42896527     11.19289705 Mo
atom      16.63693246     16.34416596     12.76129070 S
atom      16.63446001     16.33998050      9.62431828 S
atom      10.30947855     18.17094762     11.19390160 Mo
atom      13.47333300     18.16925826     11.19197956 Mo
atom      11.89216926     19.08455087     12.76053773 S
atom      11.89064502     19.08126602      9.62339151 S
atom      11.89113879     20.90822790     11.19048873 Mo
atom      10.30933536     21.82046757     12.75907574 S
atom      10.30923083     21.82102946      9.62218522 S
atom      16.63553108     18.16827478     11.19038992 Mo
atom      15.05515447     19.08307517     12.75883358 S
atom      15.05366319     19.08063729      9.62175267 S
atom      18.21697730     19.08206317     12.75790780 S
atom      18.21649166     19.07991183      9.62081634 S
atom      15.05406145     20.90760655     11.18920925 Mo
atom      13.47319439     21.82032717     12.75850607 S
atom      13.47195607     21.82105672      9.62140158 S
atom      18.21653868     20.90691332     11.18833233 Mo
atom      16.63579109     21.81997213     12.75726972 S
atom      16.63484803     21.82026940      9.62010896 S
atom      10.50484351     10.75132378     14.51428113 O
atom       9.72022355     11.21001796     14.87620186 H
# 
# What follows is the current estimated Hessian matrix constructed by the BFGS algorithm.
# This is NOT the true Hessian matrix of the system.
# If you do not want this information here, switch it off using the "hessian_to_restart_geometry" keyword.
# 
trust_radius             0.0011128057
hessian_block                1       1          12.475109          -0.074325          -0.008628          -0.074325          14.296188          -0.048559          -0.008628          -0.048559          11.406425
hessian_block                1       2          -2.147003           1.509410           0.197658          -0.264113          -0.193967           0.022645          -0.008216          -0.091981           0.700543
hessian_block                1       3          -1.788073          -0.463463          -1.507655          -0.534388          -1.195132          -0.888932          -1.177974          -0.653495          -1.725292
hessian_block                1       4          -1.801684          -0.473243           1.408165          -0.553663          -1.194873           0.782425           1.135043           0.718600          -1.913411
hessian_block                1       5           0.149668          -3.591685           0.368631          -0.828736          -1.530245           0.060459          -0.009649           0.022130           0.571323
hessian_block                1       6           0.349121           0.011933          -0.113193           0.015845           0.193912           0.026800           0.077131           0.068033          -0.143757
hessian_block                1       7           0.374986          -0.001347          -0.095552           0.014194           0.223676           0.070958          -0.148403          -0.069355          -0.386892
hessian_block                1       8           0.120542           0.289210           0.372132           0.014758           0.218545          -0.031412          -0.043746          -0.106778           0.660969
hessian_block                1       9           0.253583          -0.398772          -0.178721          -0.029232          -0.010436          -0.059106           0.023459           0.134049          -0.295297
hessian_block                1      10           0.297083          -0.402826          -0.187445          -0.028014           0.002313          -0.048350           0.022885          -0.079122          -0.420302
hessian_block                1      11          -0.015466          -0.242811          -0.119600          -0.018969           0.047537           0.018773          -0.008067           0.163082          -0.253260
hessian_block                1      12          -0.045175          -0.239533          -0.115855           0.008060           0.061366          -0.006536           0.136452          -0.024767          -0.418933
hessian_block                1      13          -0.634547           0.616951           0.393343           0.063234          -0.516191           0.149774          -0.017494           0.028892           0.570737
hessian_block                1      14          -0.151209           0.356733          -0.208524           0.029235           0.304304          -0.057366           0.146818          -0.208430          -0.121589
hessian_block                1      15          -0.176191           0.349602          -0.224540           0.033039           0.307714          -0.055123          -0.145486           0.211280          -0.363820
hessian_block                1      16           0.004809          -0.226662           0.289700           0.229016          -0.005174          -0.105726          -0.043344          -0.150131           0.535820
hessian_block                1      17           0.067321           0.078667          -0.174472           0.067035           0.086359          -0.083265          -0.070880          -0.106724          -0.200915
hessian_block                1      18           0.096199           0.142345          -0.166352           0.031900           0.094921          -0.033524           0.101986          -0.006028          -0.325046
hessian_block                1      19          -0.780027          -0.531723           0.329992          -0.096879           0.577109          -0.071237           0.008531           0.056854           0.356931
hessian_block                1      20           0.751163           0.143159           0.422433          -0.077137          -0.460040           0.163434          -0.027173           0.042521           0.261557
hessian_block                1      21          -0.113449          -0.095819          -0.094365          -0.024992          -0.002323           0.057624          -0.009143          -0.008488          -0.041972
hessian_block                1      22          -0.130788          -0.127108          -0.107056          -0.042745           0.006970           0.084203          -0.046476          -0.012069          -0.177673
hessian_block                1      23           0.309612           0.223397           0.091384           0.849371           0.090616          -0.219810           0.000162           0.136206           0.103753
hessian_block                1      24          -0.136737          -0.269588           0.011468          -0.249169           0.025200           0.105571          -0.152184           0.094971          -0.054303
hessian_block                1      25          -0.116993          -0.248108           0.005772          -0.238566           0.026765           0.141648           0.109732          -0.073151           0.003057
hessian_block                1      26           0.165894          -0.389438           0.509307           0.182038          -0.534947           0.165699           0.055368           0.089757           0.381442
hessian_block                1      27          -0.227179           0.150563          -0.168645           0.011231           0.175242          -0.106405           0.166385          -0.294271          -0.020876
hessian_block                1      28          -0.170270           0.160328          -0.183315           0.047944           0.228924          -0.094297          -0.201550           0.059888          -0.210882
hessian_block                1      29           0.032911           0.094289          -0.084828          -0.097580           0.220115          -0.124334           0.005186           0.099567          -0.149798
hessian_block                1      30           0.055478          -0.039592          -0.029682          -0.061575           0.054538          -0.138703           0.008415          -0.068917          -0.091546
hessian_block                1      31           0.454179          -0.030463          -0.107662          -0.247724          -0.064452           0.290647           0.095622           0.195620           0.145488
hessian_block                1      32          -0.084464          -0.024893          -0.090461          -0.031333           0.047388          -0.015085          -0.083852          -0.043617           0.067055
hessian_block                1      33          -0.102914          -0.029398          -0.065159          -0.022923           0.049551           0.028560           0.029873          -0.114047          -0.051452
hessian_block                1      34          -0.001550           0.166766          -0.015154           0.126075          -0.256794           0.391342          -0.050449          -0.521248           0.204663
hessian_block                1      35          -0.042807          -0.133681           0.110298          -0.045813           0.076793          -0.159870          -0.061012           0.027316           0.103728
hessian_block                1      36           0.056968          -0.099756           0.041982          -0.070880           0.172389          -0.116148          -0.005303          -0.020989          -0.236023
hessian_block                1      37           0.767815           0.625315           0.111219          -0.456210          -0.262536          -0.302249          -0.016758          -0.132777           0.630999
hessian_block                1      38          -0.220076          -0.176530          -0.101511          -0.619382           0.251973           0.094135           0.001317          -0.095173           0.657692
hessian_block                1      39          -0.143827           0.048316          -0.034571           0.204279           0.002850          -0.024071           0.106915           0.148723          -0.220758
hessian_block                1      40          -0.149972           0.062495          -0.032604           0.188444           0.008926          -0.018217          -0.011029          -0.046236          -0.470673
hessian_block                1      41           0.878490          -0.542070          -0.037686          -0.021985          -0.503499          -0.040164           0.010746          -0.050037           0.600166
hessian_block                1      42          -0.109179           0.115929          -0.078127          -0.119844           0.041023           0.014973          -0.050082           0.076202          -0.228148
hessian_block                1      43          -0.105017           0.056983          -0.120795          -0.100345           0.054728           0.030521           0.087184          -0.143812          -0.249247
hessian_block                1      44          -2.768745          -1.405308          -0.046131           1.326163           0.325415           0.099513          -0.007323          -0.058349           0.704842
hessian_block                1      45           0.254022           0.352691           0.091315           0.102822          -0.212757          -0.053239           0.118857           0.225628          -0.270498
hessian_block                1      46           0.279643           0.364211           0.097244           0.100765          -0.198734          -0.046215          -0.071380          -0.110961          -0.424649
hessian_block                1      47          -1.574885           0.538968           1.402544           0.451794          -1.296133          -0.869966           1.171408          -0.535643          -1.734378
hessian_block                1      48          -1.596183           0.522624          -1.512424           0.471610          -1.291290           0.809956          -1.217299           0.607692          -1.897542
hessian_block                1      49           0.101610          -0.574168          -0.053868          -0.816474          -0.001512           0.122691          -0.070020          -0.149941           0.533111
hessian_block                1      50          -0.087378          -0.079331           0.048597           0.075075           0.097857          -0.014071           0.129281          -0.085251          -0.229677
hessian_block                1      51          -0.120141          -0.032482           0.067558           0.072445           0.046270          -0.000816          -0.106239           0.183668          -0.284739
hessian_block                1      52          -0.171890           3.586125          -0.035903           0.354769          -1.221238          -0.055639          -0.032018          -0.012314           0.557590
hessian_block                1      53          -0.212877          -0.339079           0.026305           0.129627           0.293806          -0.107252          -0.024636          -0.100949          -0.155618
hessian_block                1      54          -0.238548          -0.359539           0.036527           0.096907           0.296274          -0.091679           0.047655           0.210362          -0.307549
hessian_block                1      55          -0.325224           0.346676           0.208991           0.451128           0.420520           0.183351           0.034873           0.265948           0.221426
hessian_block                1      56           0.050372           1.116429          -0.260244           0.161787          -0.431512           0.076050           0.031301          -0.067645           0.327874
hessian_block                1      57           0.072275          -0.470063           0.053279          -0.113364           0.066463          -0.210904          -0.040872          -0.126751          -0.116400
hessian_block                1      58           0.051122          -0.228834           0.020818          -0.068923           0.166621          -0.125247          -0.051279          -0.313284          -0.015804
hessian_block                1      59          -0.064663          -0.274954          -0.239931          -0.065652          -0.127855           0.472394           0.203040           0.574920          -0.067799
hessian_block                1      60          -0.116798           0.541518          -0.182324           0.006549          -0.202240          -0.259978           0.212835          -0.314878           0.030550
hessian_block                1      61          -0.003744          -0.068161           0.039530          -0.055988           0.057925          -0.184818           0.158387          -0.376289           0.022580
hessian_block                1      62           0.303864           0.030061          -0.139859           0.280161          -1.276543           0.201945          -0.019886          -0.089887           0.309713
hessian_block                1      63          -0.096025          -0.225333           0.142657          -0.041049           0.174174          -0.072085           0.063722          -0.130070          -0.077622
hessian_block                1      64          -0.083579          -0.115695           0.098876          -0.029432           0.197455          -0.011754          -0.099956           0.268061          -0.148378
hessian_block                1      65           0.148600           0.106640          -0.087975           0.049793           0.048684           0.056085          -0.002888           0.040258          -0.057677
hessian_block                1      66           0.122491           0.103406          -0.104342           0.079493           0.054828           0.100054          -0.038337           0.010980          -0.196148
hessian_block                1      67           0.111565          -0.492385          -0.246533          -0.193599           1.067468           0.255599          -0.014853          -0.028275           0.083578
hessian_block                1      68          -0.134262           0.210349           0.074386           0.058328           0.235277          -0.133973          -0.173225          -0.126761           0.037670
hessian_block                1      69          -0.171839           0.023894           0.130710          -0.008350           0.121878          -0.166669           0.069002          -0.157176          -0.056736
hessian_block                1      70          -0.449481           0.822751           0.044611           0.061248           0.238422          -0.214344          -0.052886          -0.026675           0.136628
hessian_block                1      71           0.205906           0.077437           0.010462          -0.084280          -0.183486          -0.033633          -0.018896           0.134776          -0.023129
hessian_block                1      72           0.239852           0.185206           0.017759          -0.136250          -0.269766          -0.022235           0.004236           0.026043          -0.007575
hessian_block                1      73           0.548370           0.330451           0.261064          -0.148858           0.432320          -0.342188          -0.014228           0.045276          -0.046454
hessian_block                1      74          -0.184420          -0.499211           0.277546          -0.797514           0.487528          -0.143316          -0.000674           0.030177          -0.116093
hessian_block                1      75          -0.160155           0.126104          -0.111967          -0.034453          -0.396036           0.104972          -0.016729           0.139761           0.067134
hessian_block                1      76          -0.177030           0.071406          -0.143679          -0.037107          -0.379690           0.107834           0.022668          -0.037227           0.074646
hessian_block                1      77           0.356181          -0.657430           0.033127           1.343878           0.114694          -0.141168          -0.045931          -0.063842          -0.101697
hessian_block                1      78          -0.056766          -0.103160           0.028844          -0.038572           0.152719           0.116797          -0.047209           0.046965           0.076704
hessian_block                1      79          -0.051502          -0.095011           0.043447          -0.042951           0.113081           0.092061           0.053403           0.137787          -0.050600
hessian_block                1      80           0.017665           0.459827           0.336731           0.122608           0.048136           0.265883           0.177666           0.110205           0.143387
hessian_block                1      81          -0.190771           0.009465          -0.089290           0.054043          -0.075268           0.052812          -0.079132           0.066416           0.063730
hessian_block                1      82          -0.146719           0.025348          -0.072856           0.051297          -0.133561           0.006810           0.031131          -0.151018           0.048269
hessian_block                1      83           0.231842          -0.128872          -0.079480           0.124963           0.117716          -0.217050          -0.028793           0.125015           0.077107
hessian_block                1      84           0.228386          -0.056000           0.001447           0.118773           0.037589          -0.217765          -0.035388          -0.529865          -0.037325
hessian_block                1      85           1.146005           0.002682          -0.111918           0.409486          -0.575108          -0.155581          -0.039611           0.041376          -0.132846
hessian_block                1      86           0.031855           0.021826           0.037668          -0.260142           0.258704           0.055808          -0.004355           0.056351          -0.013356
hessian_block                1      87           0.012249          -0.013644           0.042153          -0.236139           0.280173           0.070194           0.055066           0.042831           0.085018
hessian_block                1      88          -0.507050          -0.827896          -0.038984          -0.630211          -0.250081           0.221551           0.005459          -0.032119          -0.116417
hessian_block                1      89          -0.011813           0.263935           0.072608           0.022231           0.088971           0.013405           0.133329           0.076585           0.104562
hessian_block                1      90           0.013159           0.287513           0.069839           0.012213           0.157305           0.024041          -0.077838          -0.045269           0.040177
hessian_block                1      91           0.625234           0.364668          -0.132492          -0.844765          -0.067683          -0.178313          -0.045961          -0.100153           0.189663
hessian_block                1      92          -1.103108           0.414659          -0.046816          -0.366767          -0.683056           0.017406          -0.024970          -0.076067           0.185349
hessian_block                1      93           0.024068          -0.194177           0.078732          -0.155584           0.299749           0.048869          -0.052497           0.084989          -0.153246
hessian_block                1      94           0.037104          -0.177200           0.089945          -0.181827           0.277787          -0.005273           0.080620           0.087740          -0.190174
hessian_block                1      95          -0.128727           0.119834          -0.111861           2.433008          -1.703021           0.062525          -0.028335          -0.110539           0.534779
hessian_block                1      96          -0.653468          -0.001922           0.023388          -0.046890          -2.369110           1.745827           0.011838           1.535453          -1.780850
hessian_block                1      97          -0.644125          -0.003437           0.033204          -0.041540          -2.381676          -1.616047          -0.014435          -1.420566          -1.804176
hessian_block                1      98          -0.332546           0.049066          -0.251022           0.931334          -0.441173           0.021239          -0.035867          -0.055287           0.050118
hessian_block                1      99           0.330743          -0.056302           0.045079          -0.084309           0.070716           0.021958           0.005347          -0.045198          -0.272465