# 
# This is the geometry file that corresponds to the current relaxation step.
# If you do not want this file to be written, set the "write_restart_geometry" flag to .false.
#  aims_uuid : 15897C39-F367-4645-A1ED-E475084E9970                                
# 
  set_vacuum_level        26.884190
lattice_vector     18.97772551      0.00000000      0.00000000
  constrain_relaxation y
  constrain_relaxation z
lattice_vector      0.00000000     21.91324749      0.00000000
  constrain_relaxation x
  constrain_relaxation z
lattice_vector      0.00000000      0.00000000     30.00000000
  constrain_relaxation .true.
atom       0.81821163      1.73419676     11.20012651 Mo
atom       3.98058500      1.73381933     11.19979016 Mo
atom       2.39964238      2.64845333     12.76781326 S
atom       2.39923582      2.64571495      9.63065744 S
atom       2.39948174      4.47296742     11.19739333 Mo
atom       0.81821074      5.38712364     12.76531706 S
atom       0.81821605      5.38495751      9.62841294 S
atom       7.14385758      1.73349716     11.19909303 Mo
atom       5.56247764      2.64778965     12.76712685 S
atom       5.56157386      2.64454659      9.63010251 S
atom       8.72566470      2.64760689     12.76688204 S
atom       8.72506228      2.64410016      9.62923479 S
atom       5.56150648      4.47193561     11.19647485 Mo
atom       3.98125912      5.38762586     12.76446409 S
atom       3.97996471      5.38427094      9.62731395 S
atom       8.72442700      4.47093089     11.19567749 Mo
atom       7.14348548      5.38629754     12.76301707 S
atom       7.14201033      5.37977455      9.62544151 S
atom       0.81821512      7.21215949     11.19556714 Mo
atom       3.98041360      7.21187746     11.19377530 Mo
atom       2.40026826      8.12497783     12.76356068 S
atom       2.39852854      8.12519702      9.62639381 S
atom       2.39866604      9.95134531     11.19555752 Mo
atom       0.81820905     10.86377404     12.76521758 S
atom       0.81821712     10.86634936      9.62819728 S
atom       7.14565424      7.20799359     11.18924863 Mo
atom       5.56352944      8.12596135     12.75830629 S
atom       5.56056978      8.12425742      9.62391313 S
atom       8.72375805      8.12422009     12.75614652 S
atom       8.72311545      8.10545332      9.60907371 S
atom       5.55977187      9.95523680     11.18935950 Mo
atom       3.98075719     10.86388088     12.76299457 S
atom       3.97539908     10.86677380      9.62534843 S
atom       8.69625480      9.93474323     11.17200264 Mo
atom       7.14222110     10.86350612     12.75647669 S
atom       7.12559073     10.87307653      9.60936766 S
atom      10.30707509      1.73363886     11.19864283 Mo
atom      13.47028786      1.73349699     11.19908714 Mo
atom      11.88848494      2.64761054     12.76687679 S
atom      11.88908170      2.64410108      9.62923140 S
atom      11.88971982      4.47092980     11.19567115 Mo
atom      10.30707619      5.38829082     12.76097629 S
atom      10.30707037      5.37950650      9.62575492 S
atom      16.63356639      1.73381637     11.19978431 Mo
atom      15.05166912      2.64779284     12.76712207 S
atom      15.05257257      2.64454411      9.63009088 S
atom      18.21450327      2.64845833     12.76780451 S
atom      18.21491584      2.64571745      9.63065757 S
atom      15.05264397      4.47193420     11.19646268 Mo
atom      13.47067002      5.38629935     12.76300524 S
atom      13.47213982      5.37977114      9.62543136 S
atom      18.21466371      4.47297230     11.19738801 Mo
atom      16.63288297      5.38762671     12.76445541 S
atom      16.63418320      5.38426690      9.62730077 S
atom      10.30707566      7.21072336     11.18747554 Mo
atom      13.46849381      7.20799482     11.18923389 Mo
atom      11.89040050      8.12422256     12.75614234 S
atom      11.89102930      8.10545271      9.60906020 S
atom      11.91788984      9.93473917     11.17199310 Mo
atom      10.30707801     10.86451965     12.66230932 S
atom      10.30706858     10.86509900      9.63384212 S
atom      16.63374275      7.21187939     11.19376063 Mo
atom      15.05061994      8.12596115     12.75828624 S
atom      15.05358006      8.12425372      9.62390014 S
atom      18.21387716      8.12498218     12.76355295 S
atom      18.21562933      8.12519975      9.62638518 S
atom      15.05438275      9.95523495     11.18934080 Mo
atom      13.47193576     10.86350486     12.75645724 S
atom      13.48856009     10.87307683      9.60935699 S
atom      18.21548030      9.95135028     11.19554795 Mo
atom      16.63338716     10.86387857     12.76298492 S
atom      16.63875351     10.86677138      9.62532952 S
atom       0.81821493     12.69158415     11.19842779 Mo
atom       3.97881476     12.69125130     11.19624215 Mo
atom       2.39994351     13.60339686     12.76745744 S
atom       2.39778555     13.60629013      9.62968567 S
atom       2.39933531     15.43074169     11.20012881 Mo
atom       0.81821094     16.34290652     12.76936590 S
atom       0.81821580     16.34475038      9.63237348 S
atom       7.14271588     12.69186407     11.18827232 Mo
atom       5.56437626     13.60273430     12.76196391 S
atom       5.55701625     13.60797621      9.62672039 S
atom       8.72552216     13.60592999     12.75710079 S
atom       8.70939648     13.61671312      9.61000209 S
atom       5.56118471     15.43245767     11.19714200 Mo
atom       3.98149751     16.34294515     12.76852036 S
atom       3.97874091     16.34558576      9.63080692 S
atom       8.72098841     15.43114944     11.19067833 Mo
atom       7.14438342     16.34369519     12.76457959 S
atom       7.13949454     16.34850255      9.62696746 S
atom       0.81821082     18.16982123     11.20170402 Mo
atom       3.98046342     18.16998001     11.20080905 Mo
atom       2.39978020     19.08260999     12.77017626 S
atom       2.39891447     19.08299852      9.63289081 S
atom       2.39945495     20.90855657     11.20148866 Mo
atom       0.81821009     21.82227399     12.76975129 S
atom       0.81821253     21.82086400      9.63266027 S
atom       7.14341345     18.17096735     11.19812037 Mo
atom       5.56301796     19.08262404     12.76851807 S
atom       5.56061736     19.08400627      9.63143903 S
atom       8.72638786     19.08168983     12.76628920 S
atom       8.72468680     19.08414651      9.62909442 S
atom       5.56214776     20.90887763     11.20042729 Mo
atom       3.98119461     21.82204012     12.76936179 S
atom       3.98019140     21.82086122      9.63211681 S
atom       8.72540020     20.90853485     11.19893213 Mo
atom       7.14450145     21.82149866     12.76824730 S
atom       7.14320281     21.82093785      9.63103699 S
atom      10.30707817     12.72492792     11.17255441 Mo
atom      13.47142639     12.69186722     11.18825913 Mo
atom      11.88863170     13.60593378     12.75709407 S
atom      11.90474514     13.61671824      9.60999530 S
atom      11.89316219     15.43115038     11.19067186 Mo
atom      10.30707471     16.34192986     12.75996207 S
atom      10.30706952     16.34618303      9.62553684 S
atom      16.63533778     12.69125036     11.19622770 Mo
atom      15.04977276     13.60273230     12.76195160 S
atom      15.05713274     13.60797712      9.62670593 S
atom      18.21420085     13.60339862     12.76744493 S
atom      18.21637046     13.60629367      9.62968426 S
atom      15.05296135     15.43245725     11.19712979 Mo
atom      13.46977004     16.34369381     12.76457338 S
atom      13.47465352     16.34850465      9.62695752 S
atom      18.21480895     15.43074766     11.20012320 Mo
atom      16.63264297     16.34294301     12.76851459 S
atom      16.63540510     16.34558633      9.63079611 S
atom      10.30707254     18.17033022     11.19589635 Mo
atom      13.47072969     18.17096767     11.19811456 Mo
atom      11.88775981     19.08169050     12.76629026 S
atom      11.88945564     19.08414747      9.62908704 S
atom      11.88874403     20.90853220     11.19892974 Mo
atom      10.30707252     21.82134187     12.76743796 S
atom      10.30707001     21.82109909      9.63051027 S
atom      16.63368618     18.16998179     11.20080367 Mo
atom      15.05112622     19.08262096     12.76851180 S
atom      15.05352681     19.08400437      9.63143352 S
atom      18.21436560     19.08261328     12.77017458 S
atom      18.21523657     19.08300225      9.63288645 S
atom      15.05200328     20.90887320     11.20042228 Mo
atom      13.46964922     21.82149990     12.76823969 S
atom      13.47094559     21.82093718      9.63103539 S
atom      18.21468418     20.90856369     11.20148606 Mo
atom      16.63294652     21.82204073     12.76936272 S
atom      16.63395211     21.82085998      9.63210678 S
atom      10.30708640     10.86421192     14.15104071 O
# 
# What follows is the current estimated Hessian matrix constructed by the BFGS algorithm.
# This is NOT the true Hessian matrix of the system.
# If you do not want this information here, switch it off using the "hessian_to_restart_geometry" keyword.
# 
trust_radius             0.0001995526
hessian_block                1       1           9.283773          -0.156512          -0.035062          -0.156512          10.351612          -0.008949          -0.035062          -0.008949          10.433979
hessian_block                1       2          -1.181324           0.254721           0.012250          -0.221806           0.892456          -0.015254          -0.018799          -0.014337           0.002071
hessian_block                1       3          -1.529606          -0.624431          -1.386082          -0.861465          -0.897893          -0.799025          -1.326294          -0.639346          -1.414027
hessian_block                1       4          -1.521046          -0.628924           1.417625          -0.862305          -0.912253           0.822109           1.295011           0.714995          -1.422607
hessian_block                1       5           0.191997          -0.759694          -0.022349           0.650685          -0.718431          -0.038972          -0.031307          -0.030287           0.002098
hessian_block                1       6           0.089065          -0.035801           0.001962           0.015789          -0.010769           0.024232          -0.006629           0.041882          -0.029185
hessian_block                1       7           0.088461          -0.037370           0.001922           0.025134          -0.025859           0.026688          -0.032385          -0.013039           0.016553
hessian_block                1       8           0.727480           0.288039          -0.028503           0.068943           1.216567           0.042185          -0.006161          -0.025757           0.001617
hessian_block                1       9           0.065807          -0.221302           0.000064           0.017650          -0.206509           0.011168          -0.028403           0.170809          -0.012740
hessian_block                1      10           0.083830          -0.230396          -0.000132           0.012951          -0.211873           0.014013           0.036292          -0.123752          -0.001740
hessian_block                1      11          -0.126553          -0.023828           0.013781          -0.020725          -0.282199          -0.000481           0.133949           0.024067          -0.006564
hessian_block                1      12          -0.112759          -0.032168           0.015719          -0.025494          -0.287239           0.001686          -0.068440           0.005550          -0.002075
hessian_block                1      13           0.141844           0.604945           0.005796          -0.060202          -1.248951          -0.056741          -0.025813          -0.056422           0.012207
hessian_block                1      14          -0.130881          -0.060246           0.015326          -0.034551           0.239427           0.019802           0.028342          -0.060703          -0.025403
hessian_block                1      15          -0.120515          -0.054547           0.016257          -0.033683           0.231649           0.021211          -0.026536           0.089633           0.012046
hessian_block                1      16           0.122268          -0.021562          -0.063956          -0.037704          -0.319346          -0.025855          -0.048150          -0.074728           0.016363
hessian_block                1      17          -0.010536          -0.068135           0.002629          -0.027525           0.152163           0.001715           0.028563          -0.001194          -0.017861
hessian_block                1      18           0.003546          -0.097306           0.010827          -0.015709           0.122149           0.012075           0.040392           0.047068           0.006320
hessian_block                1      19           0.437764           0.132992          -0.024616          -0.833603           0.036286          -0.020336          -0.016139          -0.007105          -0.003160
hessian_block                1      20          -0.131591           0.094818          -0.064901          -0.292449          -0.070211          -0.032647          -0.057520          -0.033596           0.013875
hessian_block                1      21          -0.136087           0.027452           0.009534          -0.046467           0.089414           0.009735          -0.046096           0.006747          -0.018429
hessian_block                1      22          -0.133485           0.038246           0.007819          -0.041960           0.087638           0.009501           0.052110          -0.011348           0.005995
hessian_block                1      23           0.412562          -0.407627          -0.005745           1.172089          -0.165572          -0.011796          -0.030281          -0.053111           0.011527
hessian_block                1      24          -0.114166          -0.007290           0.002520          -0.055388          -0.117512           0.022129          -0.098110          -0.061368          -0.001567
hessian_block                1      25          -0.117568          -0.003738           0.001170          -0.041072          -0.119405           0.017742           0.113888           0.048762          -0.008332
hessian_block                1      26          -0.276577          -0.041277           0.020771           0.028878           0.622607           0.027833          -0.113792          -0.008254           0.023324
hessian_block                1      27           0.066621          -0.049360           0.004028           0.166377          -0.066228           0.009383           0.071786           0.055634          -0.019706
hessian_block                1      28           0.079015          -0.072986           0.010498           0.168456          -0.083304           0.011971           0.002782          -0.036106           0.006384
hessian_block                1      29          -0.033084           0.022032          -0.006301          -0.081995          -0.248186           0.002951           0.119336          -0.026013           0.004179
hessian_block                1      30          -0.019796           0.012705           0.001047          -0.101440          -0.114037           0.000377           0.002801          -0.102085           0.020675
hessian_block                1      31           0.119021           0.348790           0.021543          -0.616989           0.233364          -0.050227          -0.118585          -0.024219           0.032665
hessian_block                1      32           0.102084          -0.022746          -0.019935          -0.018538           0.102822           0.020908           0.040803           0.032155          -0.024033
hessian_block                1      33           0.118313          -0.047517          -0.009302          -0.018176           0.094101           0.022646           0.020399           0.015865          -0.001936
hessian_block                1      34          -0.236151           0.402422           0.001463           0.447108          -0.281103          -0.010952          -0.051691           0.193952          -0.009945
hessian_block                1      35          -0.222434          -0.158182           0.012907           0.013323           0.094949          -0.003706           0.053947          -0.066663          -0.008919
hessian_block                1      36          -0.196175          -0.059734           0.013542           0.024137           0.040136           0.003765           0.049897          -0.038511           0.026189
hessian_block                1      37          -0.427980          -0.096709           0.002293           0.260223           0.323828          -0.005585           0.008429          -0.016299          -0.003689
hessian_block                1      38           0.422153          -0.028173           0.025819          -0.122389           0.724360          -0.009175          -0.005152          -0.020736           0.001431
hessian_block                1      39           0.102723          -0.001010          -0.009857          -0.099036          -0.123983           0.003827           0.015290           0.108316          -0.025799
hessian_block                1      40           0.090412           0.002295          -0.010602          -0.104025          -0.134398           0.007562           0.049362          -0.078881           0.016675
hessian_block                1      41          -0.326623           0.204578           0.049980           0.114150          -0.798371          -0.004439          -0.054345          -0.090050           0.019821
hessian_block                1      42           0.001234           0.010324          -0.005754           0.039983           0.081163           0.002338           0.164024           0.031339          -0.041306
hessian_block                1      43           0.008832           0.030764          -0.010204           0.061754           0.053533           0.013086          -0.046258          -0.001834           0.036040
hessian_block                1      44          -0.841326          -0.224669          -0.015886           0.828050          -0.036254          -0.055765          -0.018808          -0.011474           0.002790
hessian_block                1      45          -0.011518           0.168868           0.004481          -0.002895          -0.065763           0.022032           0.076776           0.107243          -0.000886
hessian_block                1      46          -0.032353           0.181021           0.003646          -0.003756          -0.072967           0.025065          -0.065696          -0.064831          -0.013338
hessian_block                1      47          -1.408248           0.691418           1.388614           0.694744          -0.887420          -0.779673           1.357422          -0.755801          -1.419583
hessian_block                1      48          -1.416148           0.697473          -1.409375           0.694865          -0.899912           0.839071          -1.394324           0.819288          -1.410689
hessian_block                1      49           0.568690          -0.786802          -0.024980          -0.574969          -0.714278          -0.004218          -0.024592          -0.042084           0.009218
hessian_block                1      50           0.010489           0.084259           0.009695           0.076051           0.139805           0.000276           0.042716           0.033135          -0.014268
hessian_block                1      51          -0.008038           0.088690           0.007071           0.090774           0.133640           0.007179           0.035434           0.006404           0.005703
hessian_block                1      52          -0.823590           0.841494           0.062812          -0.006410           0.083001          -0.041680          -0.019783          -0.014994           0.000762
hessian_block                1      53           0.067305           0.044436          -0.023492          -0.027205           0.119129           0.004346           0.022364          -0.001932          -0.017155
hessian_block                1      54           0.053698           0.045877          -0.025729          -0.023418           0.107967           0.007778          -0.011220           0.025888           0.008502
hessian_block                1      55           0.383201          -0.380309           0.020483          -0.085567           0.846367           0.009559          -0.168401           0.048516           0.022691
hessian_block                1      56          -0.396229           0.194545          -0.019938           0.022993           0.894883          -0.023681          -0.121630          -0.045724           0.032470
hessian_block                1      57           0.035786           0.045116           0.000012           0.072302          -0.128563          -0.003668           0.178802           0.145343          -0.010353
hessian_block                1      58           0.041144           0.081907          -0.011228           0.047494          -0.034920           0.001578           0.020367          -0.105100          -0.000810
hessian_block                1      59          -0.064761          -0.118318           0.019422          -0.607157          -1.168240           0.035080          -0.202487          -0.111089           0.053599
hessian_block                1      60           0.317256           0.056586          -0.026113           0.078968           0.500224           0.003730          -0.004325          -0.431247           0.054796
hessian_block                1      61           0.199834          -0.058823          -0.004321           0.101571           0.419679          -0.009402          -0.057643          -0.054736           0.034830
hessian_block                1      62           0.088998          -0.050898           0.059712           0.650921          -0.526204          -0.057995          -0.052510          -0.026143           0.006174
hessian_block                1      63           0.016040           0.072379          -0.007919          -0.109327          -0.095610           0.027092           0.019487           0.006358          -0.029508
hessian_block                1      64           0.006055           0.072990          -0.009798          -0.103260          -0.101910           0.028268           0.064999          -0.010438           0.024064
hessian_block                1      65           0.012808          -0.078978          -0.005027           0.103633          -0.016434           0.028876          -0.001841          -0.142309          -0.000180
hessian_block                1      66           0.003512          -0.080979          -0.006888           0.111154          -0.020689           0.029586           0.011931           0.142258          -0.006944
hessian_block                1      67           0.385170          -0.859592          -0.003199           0.010256           0.260224          -0.035208          -0.114844          -0.022576           0.033614
hessian_block                1      68          -0.179185           0.184784          -0.002248           0.130800           0.199372          -0.004173           0.089226          -0.019730          -0.023894
hessian_block                1      69          -0.126494           0.178061          -0.015533           0.156195           0.152392           0.002595           0.088746           0.032895           0.010039
hessian_block                1      70          -0.880635           0.470419           0.039917          -0.468114           0.665118          -0.041855          -0.015376          -0.030769           0.001631
hessian_block                1      71           0.228855           0.050507           0.001844          -0.057301          -0.028755           0.020123           0.020465           0.021154          -0.008188
hessian_block                1      72           0.204954           0.043845          -0.003570          -0.054780          -0.027848           0.018592           0.048200           0.002755          -0.003991
hessian_block                1      73           1.331163           0.047049          -0.022401          -0.308949           1.305941          -0.068227          -0.010383          -0.015048          -0.006104
hessian_block                1      74          -1.220708           0.145014           0.002596          -0.223562          -0.032652          -0.042153          -0.044278          -0.080320           0.027651
hessian_block                1      75          -0.023178           0.140755          -0.003416          -0.017531          -0.301793           0.019876           0.063127           0.057489          -0.000876
hessian_block                1      76          -0.025197           0.146281          -0.005121          -0.015102          -0.298062           0.017791          -0.029228          -0.045802          -0.016726
hessian_block                1      77          -0.021693          -1.224425           0.026733           0.600856          -0.498092          -0.057837          -0.020923          -0.023544          -0.002142
hessian_block                1      78           0.098692           0.034340          -0.001546           0.031853           0.052952           0.022116           0.034806           0.113551           0.003181
hessian_block                1      79           0.096920           0.033993          -0.001594           0.023183           0.067595           0.020214          -0.030958          -0.078762          -0.021007
hessian_block                1      80           0.781978          -0.036582          -0.031750          -0.005121           0.170021           0.022427          -0.154215           0.032160           0.016847
hessian_block                1      81           0.071762          -0.056966          -0.004649           0.018577          -0.148431           0.002866          -0.023916           0.027264          -0.027761
hessian_block                1      82           0.104794          -0.089380           0.011297           0.007706          -0.125341          -0.005050           0.107339           0.035636           0.004986
hessian_block                1      83          -0.080299           0.156632           0.013685           0.089612          -0.081922          -0.000029           0.160138          -0.189504           0.041538
hessian_block                1      84          -0.060210           0.235435           0.008917           0.070728          -0.099590          -0.004757          -0.015434           0.102726          -0.011849
hessian_block                1      85           0.148876           0.254711          -0.001036          -0.000026          -0.200942           0.019189          -0.046427          -0.080780           0.027595
hessian_block                1      86          -0.041491           0.083731          -0.018775           0.006668           0.186340           0.009255           0.044418          -0.061426           0.013015
hessian_block                1      87          -0.040488           0.085405          -0.018172           0.003680           0.199043           0.009671          -0.004154           0.115336          -0.032824
hessian_block                1      88          -0.246072          -0.617632           0.022766          -0.086474           0.210278          -0.016190          -0.097620          -0.017970           0.024616
hessian_block                1      89           0.099853           0.267628          -0.008418           0.015648          -0.008048           0.005130           0.031116          -0.064204           0.024456
hessian_block                1      90           0.119451           0.261923          -0.003455           0.000304           0.026384          -0.007575           0.046268           0.140363          -0.047071
hessian_block                1      91           0.410265          -0.001909          -0.012419          -0.676278           0.503095          -0.036235          -0.014531          -0.021037          -0.000362
hessian_block                1      92          -0.203973           0.209512           0.068988          -0.493599           0.114105          -0.011938          -0.030918          -0.025921          -0.000054
hessian_block                1      93          -0.106237          -0.043755          -0.014638          -0.006562           0.098061          -0.004235           0.003728           0.102935           0.000358
hessian_block                1      94          -0.099037          -0.045793          -0.013246          -0.012236           0.112073          -0.006047          -0.007061          -0.011008          -0.024317
hessian_block                1      95           0.256884           0.170261           0.049568           1.029493          -1.877630           0.006924          -0.027868          -0.022557           0.005765
hessian_block                1      96          -0.134495          -0.005356           0.003560           0.022416          -1.814756           1.618408          -0.058665           1.336377          -1.405193
hessian_block                1      97          -0.134206          -0.003781           0.001357           0.016941          -1.816555          -1.617823           0.028810          -1.230988          -1.439423
hessian_block                1      98          -0.664137          -0.834503           0.022998          -0.085544           0.396413          -0.027681          -0.018450          -0.069323           0.019087
hessian_block                1      99           0.154451           0.032773          -0.014876           0.153788          -0.000580           0.010656           0.010583           0.019142           0.018968